GLPSOL--GLPK LP/MIP Solver 5.0
Parameter(s) specified in the command line:
 --lp ../modeles/3_404.lp --log 3_404.log
Reading problem data from '../modeles/3_404.lp'...
1225 rows, 2430 columns, 8493 non-zeros
1212 integer variables, all of which are binary
3664 lines were read
GLPK Integer Optimizer 5.0
1225 rows, 2430 columns, 8493 non-zeros
1212 integer variables, all of which are binary
Preprocessing...
1194 constraint coefficient(s) were reduced
1225 rows, 2427 columns, 8490 non-zeros
1212 integer variables, all of which are binary
Scaling...
 A: min|aij| =  9.803e-05  max|aij| =  4.000e+00  ratio =  4.080e+04
GM: min|aij| =  7.036e-02  max|aij| =  1.421e+01  ratio =  2.020e+02
EQ: min|aij| =  4.950e-03  max|aij| =  1.000e+00  ratio =  2.020e+02
2N: min|aij| =  3.906e-03  max|aij| =  1.766e+00  ratio =  4.521e+02
Constructing initial basis...
Size of triangular part is 1225
Solving LP relaxation...
GLPK Simplex Optimizer 5.0
1225 rows, 2427 columns, 8490 non-zeros
      0: obj =   6.000000000e+00 inf =   1.450e+01 (7)
     68: obj =   4.588189160e-01 inf =   0.000e+00 (0)
*   228: obj =  -1.731996277e+00 inf =   7.940e-17 (0)
OPTIMAL LP SOLUTION FOUND
Integer optimization begins...
Long-step dual simplex will be used
+   228: mip =     not found yet >=              -inf        (1; 0)
+   922: >>>>>  -1.731996277e+00 >=  -1.731996277e+00 < 0.1% (693; 0)
+   922: mip =  -1.731996277e+00 >=     tree is empty   0.0% (0; 1385)
INTEGER OPTIMAL SOLUTION FOUND
Time used:   1.0 secs
Memory used: 3.6 Mb (3788709 bytes)
